p cnf 15 23
-4 0
-6 0
-3 0
-2 0
-1 0
-11 0
-5 -14 0
-8 -7 -13 0
7 -12 0
12 -14 -8 0
-7 -5 -9 0
-9 -8 -13 0
8 -7 0
-14 -5 13 0
5 -10 0
-7 15 14 0
14 -8 12 0
13 -9 0
5 -15 -14 0
-12 -7 -5 0
10 -5 0
-12 -14 0
-13 -10 0
